proyfinal/src/viki/013/experimentInOfficeAgust.take6.output/3c4e9597-3ce3-487b-b044-1a4aa5d979c9.als.out
Reading from standard input... Use '--help' for help.
============================[ Problem Statistics ]=============================
|                                                                             |
|  Number of variables:         87638                                         |
|  Number of clauses:          161767                                         |
|  Parse time:                   0.04 s                                       |
|                                                                             |
============================[ Search Statistics ]==============================
| Conflicts |          ORIGINAL         |          LEARNT          | Progress |
|           |    Vars  Clauses Literals |    Limit  Clauses Lit/Cl |          |
===============================================================================
|       100 |   63267   108379   270741 |    39738      100      9 | 27.809 % |
|       250 |   63266   108335   270651 |    43712      249     23 | 27.810 % |
|       475 |   63266   108335   270651 |    48084      474     37 | 27.810 % |
|       812 |   63266   108335   270651 |    52892      811     74 | 27.810 % |
|      1318 |   63266   108335   270651 |    58181     1317     57 | 27.810 % |
|      2077 |   63258   108303   270563 |    64000     1935     72 | 27.819 % |
|      3216 |   63258   108303   270563 |    70400     3074     79 | 27.819 % |
|      4924 |   63237   108216   270364 |    77440     4780     88 | 27.843 % |
|      7486 |   63146   107850   269517 |    85184     6768     82 | 27.947 % |
|     11330 |   63121   107748   269283 |    93702    10608     95 | 27.975 % |
===============================================================================
restarts              : 62
conflicts             : 15713          (6775 /sec)
decisions             : 96390          (0.00 % random) (41559 /sec)
propagations          : 24404168       (10521945 /sec)
conflict literals     : 1357660        (49.12 % deleted)
Memory used           : 28.17 MB
CPU time              : 2.31936 s

INDETERMINATE
